n_res = 4;
rc = [ 13, 14, 12, 12 ];
n_tasks = 30;
d = [ 7, 1, 3, 9, 6, 3, 5, 6, 1, 9, 10, 8, 5, 7, 4, 4, 4, 4, 1, 9, 7, 8, 5, 9, 2, 6, 9, 1, 1, 5 ];
rr = [| 13, 13, 13, 13, 13, 13, 13, 13, 13, 13, 13, 13, 13, 13, 13, 13, 13, 13, 13, 13, 13, 13, 13, 13, 13, 13, 13, 13, 13, 13
      | 14, 14, 14, 14, 14, 14, 14, 14, 14, 14, 14, 14, 14, 14, 14, 14, 14, 14, 14, 14, 14, 14, 14, 14, 14, 14, 14, 14, 14, 14
      | 12, 12, 12, 12, 12, 12, 12, 12, 12, 12, 12, 12, 12, 12, 12, 12, 12, 12, 12, 12, 12, 12, 12, 12, 12, 12, 12, 12, 12, 12
      | 12, 12, 12, 12, 12, 12, 12, 12, 12, 12, 12, 12, 12, 12, 12, 12, 12, 12, 12, 12, 12, 12, 12, 12, 12, 12, 12, 12, 12, 12|];
suc = [ { 14, 21 },
       { 4, 12, 17 },
       { 7, 11, 25 },
       { 5, 6, 9 },
       { 8 },
       { 16, 18 },
       { 23, 27 },
       { 18 },
       { 10, 19 },
       { 27, 29 },
       { 13, 14 },
       { 15, 20, 25 },
       { 19, 20 },
       { 15, 20 },
       { 16, 18, 22 },
       { 24, 27 },
       { 26 },
       { 23 },
       { 21, 23 },
       { 22 },
       { 22, 24 },
       { 26 },
       { 28, 30 },
       { 26, 29 },
       { 29 },
       { 28, 30 },
       { 28, 30 },
       {  },
       {  },
       {  } ];
